0 220 
1 231 
2 233 
3 233 
4 235 
5 239 
6 238 
7 237 
8 246 
9 251 
10 252 
11 253 
12 254 
13 257 
14 260 
15 261 
16 262 
17 263 
18 264 
19 264 
20 263 
21 263 
22 262 
23 261 
24 260 
25 261 
26 261 
27 261 
28 260 
29 258 
30 257 
31 256 
32 256 
33 255 
34 254 
35 253 
36 252 
37 250 
38 248 
39 246 
40 245 
41 245 
42 244 
43 242 
44 240 
45 240 
46 240 
47 240 
48 242 
49 242 
50 241 
51 240 
52 240 
53 239 
54 237 
55 239 
56 240 
57 240 
58 240 
59 242 
60 241 
61 240 
62 241 
63 240 
64 239 
65 239 
66 238 
67 237 
68 236 
69 235 
70 234 
71 232 
72 232 
73 231 
74 230 
75 230 
76 229 
77 228 
78 229 
79 228 
80 228 
81 226 
82 225 
83 224 
84 223 
85 221 
86 219 
87 218 
88 220 
89 222 
90 227 
91 230 
92 232 
93 231 
94 230 
95 230 
96 229 
97 228 
98 229 
99 228 
100 227 
101 225 
102 227 
103 226 
104 226 
105 226 
106 225 
107 224 
108 225 
109 225 
110 224 
111 223 
112 224 
113 224 
114 224 
115 223 
116 223 
117 223 
118 222 
119 220 
120 219 
121 218 
122 218 
123 217 
124 224 
125 226 
126 229 
127 231 
128 232 
129 232 
130 232 
131 231 
132 231 
133 230 
134 232 
135 232 
136 231 
137 230 
138 230 
139 229 
140 228 
141 228 
142 227 
143 225 
144 224 
145 223 
146 224 
147 225 
148 225 
149 224 
150 224 
151 223 
152 222 
153 220 
154 219 
155 219 
156 218 
157 217 
158 215 
159 216 
160 214 
161 211 
162 211 
163 210 
164 210 
165 213 
166 215 
167 215 
168 214 
169 214 
170 214 
171 212 
172 211 
173 211 
174 210 
175 208 
176 207 
177 206 
178 204 
179 204 
180 204 
181 203 
182 203 
183 202 
184 200 
185 199 
186 199 
187 205 
188 204 
189 203 
190 202 
191 204 
192 204 
193 204 
194 203 
195 203 
196 202 
197 203 
198 202 
199 203 
200 202 
201 201 
202 201 
203 202 
204 202 
205 201 
206 203 
207 202 
208 201 
209 200 
210 199 
211 198 
212 197 
213 198 
214 196 
215 196 
216 196 
217 195 
218 194 
219 194 
220 192 
221 191 
222 192 
223 190 
224 191 
225 191 
226 190 
227 189 
228 190 
229 189 
230 189 
231 188 
232 188 
233 187 
234 187 
235 187 
236 187 
237 185 
238 183 
239 182 
240 181 
241 180 
242 179 
243 178 
244 177 
245 176 
246 176 
247 174 
248 172 
249 174 
250 177 
251 180 
252 181 
253 181 
254 181 
255 182 
256 182 
257 181 
258 179 
259 179 
260 178 
261 177 
262 176 
263 175 
264 174 
265 175 
266 174 
267 174 
268 174 
269 173 
270 174 
271 173 
272 172 
273 171 
274 171 
275 172 
276 171 
277 171 
278 171 
279 170 
280 169 
281 167 
282 166 
283 165 
284 164 
285 163 
286 162 
287 163 
288 162 
289 162 
290 162 
291 162 
292 164 
293 168 
294 173 
295 177 
296 179 
297 181 
298 182 
299 182 
300 181 
301 183 
302 182 
303 181 
304 182 
305 181 
306 180 
307 178 
308 179 
309 178 
310 176 
311 175 
312 174 
313 172 
314 173 
315 173 
316 174 
317 174 
318 173 
319 174 
320 174 
321 174 
322 175 
323 174 
324 173 
325 172 
326 172 
327 173 
328 175 
329 174 
330 173 
331 171 
332 171 
333 171 
334 170 
335 172 
336 172 
337 171 
338 170 
339 168 
340 167 
341 167 
342 166 
343 168 
344 168 
345 169 
346 169 
347 169 
348 170 
349 169 
350 168 
351 170 
352 170 
353 169 
354 167 
355 169 
356 176 
357 179 
358 180 
359 180 
360 181 
361 181 
362 180 
363 180 
364 180 
365 181 
366 180 
367 179 
368 179 
369 179 
370 178 
371 178 
372 178 
373 177 
374 176 
375 175 
376 174 
377 173 
378 172 
379 173 
380 173 
381 172 
382 171 
383 171 
384 170 
385 168 
386 166 
387 165 
388 165 
389 163 
390 163 
391 163 
392 164 
393 163 
394 162 
395 161 
396 161 
397 160 
398 159 
399 160 
400 161 
401 160 
402 159 
403 160 
404 159 
405 158 
406 157 
407 157 
408 156 
409 156 
410 155 
411 154 
412 154 
413 153 
414 151 
415 152 
416 151 
417 149 
418 148 
419 148 
420 148 
421 148 
422 147 
423 146 
424 147 
425 146 
426 145 
427 145 
428 145 
429 144 
430 144 
431 144 
432 145 
433 147 
434 148 
435 147 
436 146 
437 145 
438 144 
439 143 
440 141 
441 139 
442 140 
443 138 
444 138 
445 137 
446 136 
447 134 
448 139 
449 139 
450 139 
451 139 
452 139 
453 140 
454 139 
455 137 
456 136 
457 134 
458 133 
459 133 
460 134 
461 133 
462 132 
463 131 
464 130 
465 130 
466 128 
467 126 
468 125 
469 125 
470 124 
471 128 
472 129 
473 130 
474 131 
475 133 
476 132 
477 133 
478 133 
479 133 
480 133 
481 133 
482 135 
483 135 
484 135 
485 134 
486 133 
487 135 
488 135 
489 133 
490 132 
491 130 
492 129 
493 129 
494 127 
495 128 
496 126 
497 126 
498 126 
499 126 
500 125 
501 125 
502 125 
503 125 
504 124 
505 125 
506 124 
507 124 
508 123 
509 121 
510 122 
511 122 
512 123 
513 121 
514 120 
515 119 
516 118 
517 117 
518 116 
519 115 
520 114 
521 113 
522 113 
523 114 
524 113 
525 113 
526 112 
527 111 
528 110 
529 108 
530 106 
531 107 
532 106 
533 104 
534 103 
535 103 
536 105 
537 104 
538 103 
539 103 
540 102 
541 101 
542 100 
543 100 
544 99 
545 98 
546 97 
547 96 
548 96 
549 95 
550 91 
551 87 
552 86 
553 84 
554 80 
555 81 
556 83 
557 83 
558 83 
559 80 
560 77 
561 77 
562 76 
563 75 
564 79 
565 77 
566 78 
567 78 
568 78 
569 76 
570 74 
571 73 
572 74 
573 73 
574 73 
575 72 
576 72 
577 72 
578 71 
579 68 
580 69 
581 70 
582 71 
583 72 
584 72 
585 72 
586 70 
587 69 
588 66 
589 62 
590 63 
591 60 
592 59 
593 60 
594 58 
595 56 
596 56 
597 55 
598 54 
599 54 
600 53 
601 52 
602 52 
603 52 
604 52 
605 51 
606 48 
607 46 
608 46 
609 44 
610 41 
611 40 
612 40 
613 37 
614 36 
615 36 
616 38 
617 38 
618 38 
619 38 
620 38 
621 36 
622 35 
623 32 
624 33 
625 33 
626 35 
627 33 
628 33 
629 33 
630 31 
631 30 
632 30 
633 28 
634 27 
635 27 
636 27 
637 26 
638 28 
639 29 
640 29 
641 27 
642 24 
643 27 
644 27 
645 27 
646 28 
647 28 
648 30 
649 31 
650 30 
651 28 
652 28 
653 28 
654 26 
655 24 
656 23 
657 22 
658 22 
659 21 
660 21 
661 21 
662 20 
663 20 
664 20 
665 21 
666 20 
667 19 
668 19 
669 18 
670 17 
671 18 
672 17 
673 16 
674 16 
675 15 
676 14 
677 15 
678 15 
679 16 
680 16 
681 15 
682 13 
683 13 
684 13 
685 12 
686 13 
687 12 
688 11 
689 11 
690 10 
691 9 
692 8 
693 7 
694 6 
695 5 
696 4 
697 3 
698 2 
699 1 
700 3 
701 2 
702 2 
703 0 
704 0 

